p tw 182 209
1 2
2 95
3 14
4 5
5 6
6 7
7 8
7 176
8 9
9 10
10 11
11 12
12 13
13 15
14 25
15 16
16 17
17 18
18 19
19 20
20 21
21 22
21 48
22 23
23 24
23 48
24 26
25 36
26 27
26 12
27 28
28 29
29 30
29 33
30 31
31 32
32 33
32 12
33 34
34 35
35 37
36 47
37 38
38 39
39 40
39 12
40 41
41 42
42 43
43 44
44 45
45 46
46 12
47 58
48 49
49 50
50 51
51 52
52 53
52 70
53 54
54 55
55 56
55 67
56 57
57 59
58 69
59 60
59 67
60 61
61 62
62 63
63 64
64 65
65 66
66 57
67 68
68 70
69 80
70 71
71 72
72 73
73 74
74 75
75 76
75 89
76 77
77 78
78 79
79 81
79 83
80 91
81 82
82 85
83 84
84 85
85 86
86 87
87 88
88 72
89 90
90 92
91 94
92 93
94 96
95 106
96 97
97 98
98 99
99 100
100 101
100 107
101 102
102 103
103 104
104 105
105 107
105 123
106 117
107 108
108 109
109 110
110 111
110 115
111 112
111 113
112 113
112 123
113 114
114 92
115 116
116 118
117 128
118 119
119 120
119 97
120 121
121 122
122 97
123 124
124 125
125 126
126 127
127 129
127 132
128 139
129 130
130 131
131 144
132 133
133 134
134 135
135 136
136 137
137 138
137 125
138 140
139 150
139 161
140 141
141 142
141 144
142 143
143 144
144 145
145 146
146 147
147 148
148 149
149 151
150 92
151 152
152 153
152 166
153 154
154 155
155 156
156 157
157 158
157 166
158 159
159 160
160 162
161 172
162 163
163 164
164 165
164 166
165 166
166 167
167 168
168 169
169 170
169 173
170 171
171 173
172 3
173 174
174 175
174 70
175 176
176 177
177 178
178 179
179 180
179 4
180 181
181 182
182 4
